50
21399

483 267
559 492
556 903
656 994
32 518
318 692
530 191
254 628
784 440
431 222
525 288
357 95
883 633
105 544
799 584
78 32
266 484
984 384
333 18
591 52
93 394
951 407
704 692
483 270
385 664
860 555
6 72
336 778
379 35
173 201
961 648
352 455
924 595
429 75
373 283
110 187
712 230
165 633
985 660
246 692
267 232
218 338
845 677
914 482
486 643
163 940
39 974
452 297
398 324
606 828
